NAME: random-68-6669
TYPE: TSP
COMMENT: size=68 seed=6669
DIMENSION: 138
EDGE_WEIGHT_TYPE: EUC_2D
NODE_COORD_SECTION
+0 883 162
-0 883 162
+1 379 348
-1 425 413
+2 577 570
-2 981 824
+3 121 288
-3 971 303
+4 438 704
-4 228 513
+5 459 801
-5 552 398
+6 619 619
-6 620 62
+7 126 743
-7 603 893
+8 278 171
-8 414 841
+9 258 213
-9 328 157
+10 314 424
-10 24 256
+11 897 257
-11 368 579
+12 540 63
-12 852 662
+13 157 585
-13 327 640
+14 88 182
-14 809 366
+15 667 46
-15 660 887
+16 256 439
-16 835 517
+17 492 500
-17 29 322
+18 806 879
-18 481 807
+19 222 486
-19 859 569
+20 495 994
-20 866 792
+21 743 349
-21 122 737
+22 464 887
-22 687 113
+23 865 377
-23 614 927
+24 48 489
-24 10 146
+25 968 453
-25 694 649
+26 478 138
-26 316 253
+27 778 148
-27 384 9
+28 799 895
-28 766 457
+29 943 485
-29 990 385
+30 858 976
-30 446 338
+31 442 341
-31 259 17
+32 732 879
-32 193 29
+33 564 667
-33 39 754
+34 151 327
-34 894 336
+35 765 902
-35 646 897
+36 725 788
-36 745 2
+37 508 735
-37 450 939
+38 75 607
-38 263 375
+39 626 519
-39 630 609
+40 443 995
-40 285 445
+41 939 475
-41 112 927
+42 108 54
-42 716 404
+43 589 315
-43 605 618
+44 461 424
-44 153 251
+45 55 821
-45 50 780
+46 28 120
-46 620 598
+47 591 553
-47 462 614
+48 127 691
-48 245 192
+49 530 666
-49 188 835
+50 918 454
-50 41 416
+51 929 172
-51 131 867
+52 778 226
-52 595 228
+53 627 188
-53 219 675
+54 572 196
-54 47 956
+55 639 545
-55 72 346
+56 344 471
-56 262 883
+57 454 258
-57 590 695
+58 217 880
-58 154 935
+59 544 857
-59 182 957
+60 854 391
-60 296 301
+61 802 568
-61 283 724
+62 593 269
-62 695 587
+63 973 43
-63 703 86
+64 310 953
-64 143 400
+65 942 153
-65 411 805
+66 36 81
-66 504 612
+67 673 934
-67 270 832
+68 247 899
-68 764 975
PRECEDENCE_SECTION
+0 -0
+1 -1
+2 -2
+3 -3
+4 -4
+5 -5
+6 -6
+7 -7
+8 -8
+9 -9
+10 -10
+11 -11
+12 -12
+13 -13
+14 -14
+15 -15
+16 -16
+17 -17
+18 -18
+19 -19
+20 -20
+21 -21
+22 -22
+23 -23
+24 -24
+25 -25
+26 -26
+27 -27
+28 -28
+29 -29
+30 -30
+31 -31
+32 -32
+33 -33
+34 -34
+35 -35
+36 -36
+37 -37
+38 -38
+39 -39
+40 -40
+41 -41
+42 -42
+43 -43
+44 -44
+45 -45
+46 -46
+47 -47
+48 -48
+49 -49
+50 -50
+51 -51
+52 -52
+53 -53
+54 -54
+55 -55
+56 -56
+57 -57
+58 -58
+59 -59
+60 -60
+61 -61
+62 -62
+63 -63
+64 -64
+65 -65
+66 -66
+67 -67
+68 -68
EOF
